nfreight_trains = 12;																		
freight_trains = [|			1	,	12	|	2	,	12	|	3	,	12	|	4	,	12	|
			1	,	13	|	2	,	13	|	3	,	13	|	4	,	13	|
			1	,	14	|	2	,	14	|	3	,	14	|	4	,	14	|];
			
%speed_factor = [1,2,3,1,2,3,1,2,3,1,2,3];
speed_factor = [1,1,1,1,1,1,1,1,1,1,1,1];